 vasp.5.4.1 24Jun15 (build Jul 13 2016 16:36:47) complex

 executed on           IFC91_ompi date 2019.04.19  23:09:58

 INCAR:
 POTCAR:    PAW_PBE Ga_d 06Jul2010
 POTCAR:    PAW_PBE As 22Sep2009
 POTCAR:    PAW_PBE Ga_d 06Jul2010
   VRHFIN =Ga: s2p1

   TITEL  = PAW_PBE Ga_d 06Jul2010
   POMASS =   69.723; ZVAL   =   13.000    mass and valenz
   ENMAX  =  282.691; ENMIN  =  212.018 eV

 POTCAR:    PAW_PBE As 22Sep2009
   VRHFIN =As: s2p3

   TITEL  = PAW_PBE As 22Sep2009
   POMASS =   74.922; ZVAL   =    5.000    mass and valenz
   ENMAX  =  208.702; ENMIN  =  156.526 eV

  PAW_PBE Ga_d 06Jul2010                :
  PAW_PBE As 22Sep2009                  :

 POSCAR: Ga1 As1
  positions in direct lattice
 exchange correlation table for  LEXCH =        8
   RHO(1)=    0.500       N(1)  =     2000
   RHO(2)=  100.500       N(2)  =     4000

 ion  position               nearest neighbor table
   1  0.000  0.000  0.000-   2 2.49   2 2.49   2 2.49   2 2.49
   2  0.750  0.750  0.750-   1 2.49   1 2.49   1 2.49   1 2.49

IMPORTANT INFORMATION: All symmetrisations will be switched off!
NOSYMM: (Re-)initialisation of all symmetry stuff for point group C_1.

 KPOINTS: \Gamma -> X -> W -> K -> \Gamma -> L ->
  k-points in reciprocal lattice
Space group operators:
 irot       det(A)        alpha          n_x          n_y          n_z        tau_x        tau_y        tau_z
    1     1.000000     0.000001     1.000000     0.000000     0.000000     0.000000     0.000000     0.000000

 I would recommend the setting:
   dimension x,y,z NGX =    30 NGY =   30 NGZ =   30
 SYSTEM =  unknown system
 POSCAR =  Ga1 As1

 Startparameter for this run:
   NWRITE =      2    write-flag & timer
   PREC   = accura    normal or accurate (medium, high low for compatibility)
   ISTART =      1    job   : 0-new  1-cont  2-samecut
   ICHARG =      0    charge: 1-file 2-atom 10-const
   ISPIN  =      1    spin polarized calculation?
   LNONCOLLINEAR =      F non collinear calculations
   LSORBIT =      F    spin-orbit coupling
   INIWAV =      1    electr: 0-lowe 1-rand  2-diag
   LASPH  =      F    aspherical Exc in radial PAW
   METAGGA=      F    non-selfconsistent MetaGGA calc.

 Electronic Relaxation 1
   ENCUT  =  520.0 eV  38.22 Ry    6.18 a.u.   7.56  7.56  7.56*2*pi/ulx,y,z
   ENINI  =  520.0     initial cutoff
   ENAUG  =  490.7 eV  augmentation charge cutoff
   NELM   =    200;   NELMIN=  4; NELMDL=  0     # of ELM steps
   EDIFF  = 0.1E-06   stopping-criterion for ELM
   LREAL  =      F    real-space projection
   NLSPLINE    = F    spline interpolate recip. space projectors
   LCOMPAT=      F    compatible to vasp.4.4
   GGA_COMPAT  = T    GGA compatible to vasp.4.4-vasp.4.6
   LMAXPAW     = -100 max onsite density
   LMAXMIX     =    2 max onsite mixed and CHGCAR
   VOSKOWN=      0    Vosko Wilk Nusair interpolation
   ROPT   =    0.00000   0.00000
 Ionic relaxation
   EDIFFG = 0.1E-04   stopping-criterion for IOM
   NSW    =      0    number of steps for IOM
   NBLOCK =      1;   KBLOCK =      1    inner block; outer block
   IBRION =     -1    ionic relax: 0-MD 1-quasi-New 2-CG
   NFREE  =      1    steps in history (QN), initial steepest desc. (CG)
   ISIF   =      3    stress and relaxation
   IWAVPR =     10    prediction:  0-non 1-charg 2-wave 3-comb
   ISYM   =     -1    0-nonsym 1-usesym 2-fastsym
   LCORR  =      T    Harris-Foulkes like correction to forces

   POTIM  = 0.5000    time-step for ionic-motion
   TEIN   =    0.0    initial temperature
   TEBEG  =    0.0;   TEEND  =   0.0 temperature during run
   SMASS  =  -3.00    Nose mass-parameter (am)
   estimated Nose-frequenzy (Omega)   =  0.10E-29 period in steps =****** mass=  -0.378E-27a.u.
   SCALEE = 1.0000    scale energy and forces
   NPACO  =    256;   APACO  = 16.0  distance and # of slots for P.C.
   PSTRESS=    0.0 pullay stress

  Mass of Ions in am
   POMASS =  69.72 74.92
  Ionic Valenz
   ZVAL   =  13.00  5.00
  Atomic Wigner-Seitz radii
  virtual crystal weights
   VCA    =   1.00  1.00
   NELECT =      18.0000    total number of electrons
   NUPDOWN=      -1.0000    fix difference up-down

 DOS related values:
   EMIN   =  10.00;   EMAX   =-10.00  energy-range for DOS
   EFERMI =   0.00
   ISMEAR =     0;   SIGMA  =   0.10  broadening in eV -4-tet -1-fermi 0-gaus

 Electronic relaxation 2 (details)
   IALGO  =     38    algorithm
   LDIAG  =      T    sub-space diagonalisation (order eigenvalues)
   LSUBROT=      F    optimize rotation matrix (better conditioning)
   TURBO    =      0    0=normal 1=particle mesh
   IRESTART =      0    0=no restart 2=restart with 2 vectors
   NREBOOT  =      0    no. of reboots
   NMIN     =      0    reboot dimension
   EREF     =   0.00    reference energy to select bands
   IMIX   =      4    mixing-type and parameters
     AMIX     =   0.40;   BMIX     =  1.00
     AMIX_MAG =   1.60;   BMIX_MAG =  1.00
     AMIN     =   0.10
     WC   =   100.;   INIMIX=   1;  MIXPRE=   1;  MAXMIX= -45

 Intra band minimization:
   WEIMIN = 0.0000     energy-eigenvalue tresh-hold
   EBREAK =  0.78E-09  absolut break condition
   DEPER  =   0.30     relativ break condition

   TIME   =   0.40     timestep for ELM

  volume/ion in A,a.u.               =      23.77       160.38
  Fermi-wavevector in a.u.,A,eV,Ry     =   1.184415  2.238221 19.086797  1.402840
  Thomas-Fermi vector in A             =   2.320630

 Write flags
   LWAVE  =      T    write WAVECAR
   LCHARG =      F    write CHGCAR
   LVTOT  =      F    write LOCPOT, total local potential
   LVHAR  =      F    write LOCPOT, Hartree potential only
   LELF   =      F    write electronic localiz. function (ELF)
   LORBIT =     11    0 simple, 1 ext, 2 COOP (PROOUT)

 Dipole corrections
   LMONO  =      F    monopole corrections only (constant potential shift)
   LDIPOL =      F    correct potential (dipole corrections)
   IDIPOL =      0    1-x, 2-y, 3-z, 4-all directions
   EPSILON=  1.0000000 bulk dielectric constant

 Exchange correlation treatment:
   GGA     =    --    GGA type
   VOSKOWN=      0    Vosko Wilk Nusair interpolation
   LHFCALC =     F    Hartree Fock is set to
   LHFONE  =     F    Hartree Fock one center treatment
   AEXX    =    0.0000 exact exchange contribution

 Linear response parameters
   LEPSILON=     F    determine dielectric tensor
   LRPA    =     F    only Hartree local field effects (RPA)
   LNABLA  =     F    use nabla operator in PAW spheres
   LVEL    =     F    velocity operator in full k-point grid
   LINTERFAST=   F  fast interpolation
   KINTER  =     0    interpolate to denser k-point grid
   CSHIFT  =0.1000    complex shift for real part using Kramers Kronig
   OMEGAMAX=  -1.0    maximum frequency
   DEG_THRESHOLD= 0.2000000E-02 threshold for treating states as degnerate
   RTIME   =    0.100 relaxation time in fs

 Orbital magnetization related:
   ORBITALMAG=     F  switch on orbital magnetization
   LCHIMAG   =     F  perturbation theory with respect to B field
   DQ        =  0.001000  dq finite difference perturbation B field

 Static calculation
 charge density and potential will be updated during run
 non-spin polarized calculation
 Variant of blocked Davidson
 Davidson routine will perform the subspace rotation
 perform sub-space diagonalisation
    after iterative eigenvector-optimisation
 modified Broyden-mixing scheme, WC =      100.0
 initial mixing is a Kerker type mixing with AMIX =  0.4000 and BMIX =      1.0000
 Hartree-type preconditioning will be used
 using additional bands           23
 reciprocal scheme for non local part
 use partial core corrections
 calculate Harris-corrections to forces
   (improved forces if not selfconsistent)
 use gradient corrections
 use of overlap-Matrix (Vanderbilt PP)
 Gauss-broadening in eV      SIGMA  =   0.10

  energy-cutoff  :      520.00
  volume of cell :       47.53
      direct lattice vectors                 reciprocal lattice vectors
     0.000000000  2.875091000  2.875091000    -0.173907539  0.173907539  0.173907539
     2.875091000  0.000000000  2.875091000     0.173907539 -0.173907539  0.173907539
     2.875091000  2.875091000  0.000000000     0.173907539  0.173907539 -0.173907539

  length of vectors
     4.065992685  4.065992685  4.065992685     0.301216693  0.301216693  0.301216693

 old parameters found on file WAVECAR:
  energy-cutoff  :      520.00
  volume of cell :       47.53
      direct lattice vectors                 reciprocal lattice vectors
     0.000000000  2.875091000  2.875091000    -0.173907539  0.173907539  0.173907539
     2.875091000  0.000000000  2.875091000     0.173907539 -0.173907539  0.173907539
     2.875091000  2.875091000  0.000000000     0.173907539  0.173907539 -0.173907539

  length of vectors

 k-points in units of 2pi/SCALE and weight: \Gamma -> X -> W -> K -> \Gamma -> L ->
   0.00000000  0.00000000  0.00000000       0.002
  -0.02173844  0.02173844  0.02173844       0.002
  -0.04347688  0.04347688  0.04347688       0.002
  -0.06521533  0.06521533  0.06521533       0.002
  -0.08695377  0.08695377  0.08695377       0.002
   0.06521533 -0.06521533 -0.06521533       0.002
   0.04347688 -0.04347688 -0.04347688       0.002
   0.02173844 -0.02173844 -0.02173844       0.002
   0.02173844 -0.02173844  0.02173844       0.002
   0.00000000  0.00000000  0.04347688       0.002
  -0.02173844  0.02173844  0.06521533       0.002
  -0.04347688  0.04347688  0.08695377       0.002
  -0.06521533  0.06521533  0.10869221       0.002
   0.08695377 -0.08695377 -0.04347688       0.002
   0.06521533 -0.06521533 -0.02173844       0.002
   0.04347688 -0.04347688  0.00000000       0.002
   0.04347688 -0.04347688  0.04347688       0.002
   0.02173844 -0.02173844  0.06521533       0.002
   0.00000000  0.00000000  0.08695377       0.002
  -0.02173844  0.02173844  0.10869221       0.002
  -0.04347688  0.04347688  0.13043065       0.002
   0.10869221 -0.10869221 -0.02173844       0.002
   0.08695377 -0.08695377  0.00000000       0.002
   0.06521533 -0.06521533  0.02173844       0.002
   0.06521533 -0.06521533  0.06521533       0.002
   0.04347688 -0.04347688  0.08695377       0.002
   0.02173844 -0.02173844  0.10869221       0.002
   0.00000000  0.00000000  0.13043065       0.002
  -0.02173844  0.02173844  0.15216910       0.002
   0.13043065 -0.13043065  0.00000000       0.002
   0.10869221 -0.10869221  0.02173844       0.002
   0.08695377 -0.08695377  0.04347688       0.002
   0.08695377 -0.08695377  0.08695377       0.002
   0.06521533 -0.06521533  0.10869221       0.002
   0.04347688 -0.04347688  0.13043065       0.002
   0.02173844 -0.02173844  0.15216910       0.002
   0.00000000  0.00000000  0.17390754       0.002
   0.15216910 -0.15216910  0.02173844       0.002
   0.13043065 -0.13043065  0.04347688       0.002
   0.10869221 -0.10869221  0.06521533       0.002
  -0.06521533  0.06521533 -0.06521533       0.002
  -0.08695377  0.08695377 -0.04347688       0.002
  -0.10869221  0.10869221 -0.02173844       0.002
  -0.13043065  0.13043065  0.00000000       0.002
  -0.15216910  0.15216910  0.02173844       0.002
   0.00000000  0.00000000 -0.13043065       0.002
  -0.02173844  0.02173844 -0.10869221       0.002
[...]
 k-point 36 :   0.3750 0.5000 0.0000  plane waves:    1284
 k-point 37 :   0.5000 0.5000 0.0000  plane waves:    1298
 k-point 38 :  -0.3750 0.5000 0.0000  plane waves:    1284
 k-point 39 :  -0.2500 0.5000 0.0000  plane waves:    1281
 k-point 40 :  -0.1250 0.5000 0.0000  plane waves:    1273
 k-point 41 :   0.0000-0.3750 0.0000  plane waves:    1275
 k-point 42 :   0.1250-0.3750 0.0000  plane waves:    1279
 k-point 43 :   0.2500-0.3750 0.0000  plane waves:    1281
 k-point 44 :   0.3750-0.3750 0.0000  plane waves:    1288
 k-point 45 :   0.5000-0.3750 0.0000  plane waves:    1284
 k-point 46 :  -0.3750-0.3750 0.0000  plane waves:    1274
 k-point 47 :  -0.2500-0.3750 0.0000  plane waves:    1282
 k-point 48 :  -0.1250-0.3750 0.0000  plane waves:    1280
 k-point 49 :   0.0000-0.2500 0.0000  plane waves:    1293
 k-point 50 :   0.1250-0.2500 0.0000  plane waves:    1289
 k-point 51 :   0.2500-0.2500 0.0000  plane waves:    1278
 k-point 52 :   0.3750-0.2500 0.0000  plane waves:    1281
 k-point 53 :   0.5000-0.2500 0.0000  plane waves:    1281
 k-point 54 :  -0.3750-0.2500 0.0000  plane waves:    1282
 k-point 55 :  -0.2500-0.2500 0.0000  plane waves:    1299
 k-point 56 :  -0.1250-0.2500 0.0000  plane waves:    1292
 k-point 57 :   0.0000-0.1250 0.0000  plane waves:    1279
 k-point 58 :   0.1250-0.1250 0.0000  plane waves:    1303
 k-point 59 :   0.2500-0.1250 0.0000  plane waves:    1289
 k-point 60 :   0.3750-0.1250 0.0000  plane waves:    1279
[...]
 k-point 85 :   0.5000 0.2500 0.1250  plane waves:    1280
 k-point 86 :  -0.3750 0.2500 0.1250  plane waves:    1272
 k-point 87 :  -0.2500 0.2500 0.1250  plane waves:    1280
 k-point 88 :  -0.1250 0.2500 0.1250  plane waves:    1283
 k-point 89 :   0.0000 0.3750 0.1250  plane waves:    1280
 k-point 90 :   0.1250 0.3750 0.1250  plane waves:    1289
 k-point 91 :   0.2500 0.3750 0.1250  plane waves:    1283
 k-point 92 :   0.3750 0.3750 0.1250  plane waves:    1282
 k-point 93 :   0.5000 0.3750 0.1250  plane waves:    1271
 k-point 94 :  -0.3750 0.3750 0.1250  plane waves:    1275
 k-point 95 :  -0.2500 0.3750 0.1250  plane waves:    1268
 k-point 96 :  -0.1250 0.3750 0.1250  plane waves:    1280
 k-point 97 :   0.0000 0.5000 0.1250  plane waves:    1273
 k-point 98 :   0.1250 0.5000 0.1250  plane waves:    1279
 k-point 99 :   0.2500 0.5000 0.1250  plane waves:    1280
 k-point ** :   0.3750 0.5000 0.1250  plane waves:    1271
 k-point ** :   0.5000 0.5000 0.1250  plane waves:    1284
 k-point ** :  -0.3750 0.5000 0.1250  plane waves:    1282
 k-point ** :  -0.2500 0.5000 0.1250  plane waves:    1275
 k-point ** :  -0.1250 0.5000 0.1250  plane waves:    1272
 k-point ** :   0.0000-0.3750 0.1250  plane waves:    1279
 k-point ** :   0.1250-0.3750 0.1250  plane waves:    1273
 k-point ** :   0.2500-0.3750 0.1250  plane waves:    1272
 k-point ** :   0.3750-0.3750 0.1250  plane waves:    1275
 k-point ** :   0.5000-0.3750 0.1250  plane waves:    1282
 k-point ** :  -0.3750-0.3750 0.1250  plane waves:    1284
 k-point ** :  -0.2500-0.3750 0.1250  plane waves:    1271
 k-point ** :  -0.1250-0.3750 0.1250  plane waves:    1280
 k-point ** :   0.0000-0.2500 0.1250  plane waves:    1289
 k-point ** :   0.1250-0.2500 0.1250  plane waves:    1280
 k-point ** :   0.2500-0.2500 0.1250  plane waves:    1280
 k-point ** :   0.3750-0.2500 0.1250  plane waves:    1268
 k-point ** :   0.5000-0.2500 0.1250  plane waves:    1275
 k-point ** :  -0.3750-0.2500 0.1250  plane waves:    1271
 k-point ** :  -0.2500-0.2500 0.1250  plane waves:    1282
 k-point ** :  -0.1250-0.2500 0.1250  plane waves:    1283
 k-point ** :   0.0000-0.1250 0.1250  plane waves:    1303
 k-point ** :   0.1250-0.1250 0.1250  plane waves:    1292
 k-point ** :   0.2500-0.1250 0.1250  plane waves:    1283
 k-point ** :   0.3750-0.1250 0.1250  plane waves:    1280
 k-point ** :   0.5000-0.1250 0.1250  plane waves:    1272
 k-point ** :  -0.3750-0.1250 0.1250  plane waves:    1280
 k-point ** :  -0.2500-0.1250 0.1250  plane waves:    1283
 k-point ** :  -0.1250-0.1250 0.1250  plane waves:    1292
 k-point ** :   0.0000 0.0000 0.2500  plane waves:    1293
 k-point ** :   0.1250 0.0000 0.2500  plane waves:    1292
 k-point ** :   0.2500 0.0000 0.2500  plane waves:    1299
 k-point ** :   0.3750 0.0000 0.2500  plane waves:    1282
 k-point ** :   0.5000 0.0000 0.2500  plane waves:    1281
 k-point ** :  -0.3750 0.0000 0.2500  plane waves:    1281
 k-point ** :  -0.2500 0.0000 0.2500  plane waves:    1278
 k-point ** :  -0.1250 0.0000 0.2500  plane waves:    1289
 k-point ** :   0.0000 0.1250 0.2500  plane waves:    1292
 k-point ** :   0.1250 0.1250 0.2500  plane waves:    1303
 k-point ** :   0.2500 0.1250 0.2500  plane waves:    1292
 k-point ** :   0.3750 0.1250 0.2500  plane waves:    1283
 k-point ** :   0.5000 0.1250 0.2500  plane waves:    1280
 k-point ** :  -0.3750 0.1250 0.2500  plane waves:    1272
 k-point ** :  -0.2500 0.1250 0.2500  plane waves:    1280
 k-point ** :  -0.1250 0.1250 0.2500  plane waves:    1283
 k-point ** :   0.0000 0.2500 0.2500  plane waves:    1299
 k-point ** :   0.1250 0.2500 0.2500  plane waves:    1292
 k-point ** :   0.2500 0.2500 0.2500  plane waves:    1293
 k-point ** :   0.3750 0.2500 0.2500  plane waves:    1289
 k-point ** :   0.5000 0.2500 0.2500  plane waves:    1278
 k-point ** :  -0.3750 0.2500 0.2500  plane waves:    1281
 k-point ** :  -0.2500 0.2500 0.2500  plane waves:    1281
 k-point ** :  -0.1250 0.2500 0.2500  plane waves:    1282
 k-point ** :   0.0000 0.3750 0.2500  plane waves:    1282
 k-point ** :   0.1250 0.3750 0.2500  plane waves:    1283
 k-point ** :   0.2500 0.3750 0.2500  plane waves:    1289
 k-point ** :   0.3750 0.3750 0.2500  plane waves:    1280
 k-point ** :   0.5000 0.3750 0.2500  plane waves:    1280
 k-point ** :  -0.3750 0.3750 0.2500  plane waves:    1268
 k-point ** :  -0.2500 0.3750 0.2500  plane waves:    1275
[...]
 k-point ** :   0.5729 0.1458 0.5729  plane waves:    1280
 k-point ** :   0.5677 0.1354 0.5677  plane waves:    1276
 k-point ** :   0.5625 0.1250 0.5625  plane waves:    1276
 k-point ** :   0.5573 0.1146 0.5573  plane waves:    1276
 k-point ** :   0.5521 0.1042 0.5521  plane waves:    1276
 k-point ** :   0.5469 0.0938 0.5469  plane waves:    1272
 k-point ** :   0.5417 0.0833 0.5417  plane waves:    1272
 k-point ** :   0.5365 0.0729 0.5365  plane waves:    1282
 k-point ** :   0.5312 0.0625 0.5312  plane waves:    1282
 k-point ** :   0.5260 0.0521 0.5260  plane waves:    1286
 k-point ** :   0.5208 0.0417 0.5208  plane waves:    1286
 k-point ** :   0.5156 0.0313 0.5156  plane waves:    1286
 k-point ** :   0.5104 0.0208 0.5104  plane waves:    1290
 k-point ** :   0.5052 0.0104 0.5052  plane waves:    1298
 k-point ** :   0.5000 0.0000 0.5000  plane waves:    1298

 maximum and minimum number of plane-waves per node :       173      147

 maximum number of plane-waves:      1307
 maximum index in each direction:
   IXMAX=    7   IYMAX=    7   IZMAX=    7
   IXMIN=   -8   IYMIN=   -8   IZMIN=   -8

 WARNING: aliasing errors must be expected set NGX to  32 to avoid them
 WARNING: aliasing errors must be expected set NGY to  32 to avoid them
 WARNING: aliasing errors must be expected set NGZ to  32 to avoid them
 aliasing errors are usually negligible using standard VASP settings
 and one can safely disregard these warnings

 parallel 3D FFT for wavefunctions:
    minimum data exchange during FFTs selected (reduces bandwidth)
 parallel 3D FFT for charge:
    minimum data exchange during FFTs selected (reduces bandwidth)

 Broyden mixing: mesh for mixing (old mesh)
   NGX = 15   NGY = 15   NGZ = 15
  (NGX  = 60   NGY  = 60   NGZ  = 60)
  gives a total of   3375 points

 charge density for first step will be calculated from the start-wavefunctions

 Maximum index for augmentation-charges          847 (set IRDMAX)

 initial charge from wavefunction
 First call to EWALD:  gamma=   0.489
 Maximum number of real-space cells 3x 3x 3
 Maximum number of reciprocal cells 3x 3x 3

 FEWALD executed in parallel

----------------------------------------- Iteration    1(   1)  ---------------------------------------

 eigenvalue-minimisations  : 50424
 total energy-change (2. order) :-0.8268475E+01  (-0.5535152E-12)
 number of electron      17.9999988 magnetization
 augmentation part        7.6444302 magnetization

 Broyden mixing:
  rms(total) = 0.14489E-06    rms(broyden)= 0.14489E-06
  rms(prec ) = 0.40731E-06
  weight for this iteration     100.00

 Free energy of the ion-electron system (eV)
  alpha Z        PSCENC =        57.30385868
  Ewald energy   TEWEN  =     -1244.24613433
  -Hartree energ DENC   =      -734.14601208
  -exchange      EXHF   =         0.00000000
  -V(xc)+E(xc)   XCENC  =        32.27995099
  PAW double counting   =      1976.54983001    -2289.49960309
  entropy T*S    EENTRO =        -0.00022074
  eigenvalues    EBANDS =      -125.52354107
  atomic energy  EATOM  =      2319.01339628
  Solvation  Ediel_sol  =         0.00000000
  free energy    TOTEN  =        -8.26847536 eV

  energy without entropy =       -8.26825461  energy(sigma->0) =       -8.26836499

[...]

 eigenvalue-minimisations  : 48936
 total energy-change (2. order) : 0.3051355E-09  (-0.2036693E-12)
 number of electron      17.9999988 magnetization
 augmentation part        7.6444303 magnetization

[...]

 eigenvalues of (default mixing * dielectric matrix)
  average eigenvalue GAMMA=   0.9889
  0.9889

[...]

 eigenvalue-minimisations  : 40648
 total energy-change (2. order) : 0.2646630E-09  (-0.7531851E-13)
 number of electron      17.9999988 magnetization
 augmentation part        7.6444303 magnetization

 Broyden mixing:
  rms(total) = 0.29274E-07    rms(broyden)= 0.29274E-07
  rms(prec ) = 0.60480E-07
  weight for this iteration     100.00

 eigenvalues of (default mixing * dielectric matrix)
  average eigenvalue GAMMA=   0.9253
  1.2800  0.5706

[...]

----------------------------------------- Iteration    1(   4)  ---------------------------------------

 eigenvalue-minimisations  : 39880
 total energy-change (2. order) :-0.6407390E-09  (-0.3738163E-13)
 number of electron      17.9999988 magnetization
 augmentation part        7.6444303 magnetization

 Free energy of the ion-electron system (eV)
  alpha Z        PSCENC =        57.30385868
  Ewald energy   TEWEN  =     -1244.24613433
  -Hartree energ DENC   =      -734.14600437
  -exchange      EXHF   =         0.00000000
  -V(xc)+E(xc)   XCENC  =        32.27995074
  PAW double counting   =      1976.54983105    -2289.49959933
  entropy T*S    EENTRO =        -0.00022074
  eigenvalues    EBANDS =      -125.52355333
  atomic energy  EATOM  =      2319.01339628
  Solvation  Ediel_sol  =         0.00000000
  free energy    TOTEN  =        -8.26847536 eV

  energy without entropy =       -8.26825461  energy(sigma->0) =       -8.26836499

 average (electrostatic) potential at core
  the test charge radii are     1.0314  1.0621
  (the norm of the test charge is              1.0000)
       1 -66.7950       2 -50.7511

 E-fermi :   3.5664     XC(G=0):  -9.3608     alpha+bet : -9.2550

 k-point     1 :       0.0000    0.0000    0.0000
  band No.  band energies     occupation
      1     -11.2572      2.00000
      2     -11.2572      2.00000
      3     -11.2572      2.00000
      4     -11.1904      2.00000
      5     -11.1904      2.00000
      6      -8.9048      2.00000
      7       3.4702      1.82642
      8       3.4702      1.82641
      9       3.4702      1.82641
     10       3.6118      0.52090
     11       7.1793      0.00000
     12       7.1793      0.00000
     13       7.1793      0.00000
     14      10.9009      0.00000
     15      13.4646      0.00000
     16      13.4646      0.00000
     17      14.8980      0.00000
     18      14.8980      0.00000
     19      14.8980      0.00000
     20      17.7854      0.00000
     21      27.9913      0.00000
     22      27.9913      0.00000
     23      27.9913      0.00000
     24      29.0863      0.00000
     25      29.0863      0.00000
     26      29.0863      0.00000
     27      29.7602      0.00000
     28      29.7602      0.00000
     29      29.7602      0.00000
     30      30.3514      0.00000
     31      30.3514      0.00000
     32      37.2830      0.00000

[...]

 k-point   941 :       0.5000    0.0000    0.5000
  band No.  band energies     occupation
      1     -11.3497      2.00000
      2     -11.2162      2.00000
      3     -11.2162      2.00000
      4     -11.2109      2.00000
      5     -11.1795      2.00000
      6      -6.6170      2.00000
      7      -3.1214      2.00000
      8       0.9641      2.00000
      9       0.9641      2.00000
     10       5.0227      0.00000
     11       5.1422      0.00000
     12      13.2304      0.00000
     13      13.2304      0.00000
     14      13.9999      0.00000
     15      16.2628      0.00000
     16      16.5608      0.00000
     17      16.5608      0.00000
     18      16.6411      0.00000
     19      18.6416      0.00000
     20      22.2934      0.00000
     21      22.7455      0.00000
     22      22.7455      0.00000
     23      22.8696      0.00000
     24      23.0066      0.00000
     25      23.3174      0.00000
     26      23.3174      0.00000
     27      24.5838      0.00000
     28      30.7182      0.00000
     29      31.8809      0.00000
     30      31.8809      0.00000
     31      33.3782      0.00000
     32      35.1741      0.00000

 soft charge-density along one line, spin component           1
         0         1         2         3         4         5         6         7         8         9
 total charge-density along one line

------------------------ aborting loop because EDIFF is reached ----------------------------------------

 total charge

# of ion     s       p       d       tot
  1        0.883   0.753   9.985  11.621
  2        1.214   1.562   0.028   2.804
tot        2.096   2.315  10.013  14.425

  FORCE on cell =-STRESS in cart. coord.  units (eV):
  Direction    XX          YY          ZZ          XY          YZ          ZX
  Alpha Z    57.30386    57.30386    57.30386
  Ewald    -414.74885  -414.74885  -414.74885    -0.00000     0.00000     0.00000
  Hartree   244.71533   244.71533   244.71533     0.00001     0.00001     0.00001
  E(xc)     -97.33697   -97.33697   -97.33697     0.00001     0.00001     0.00001
  Local     -68.33786   -68.33786   -68.33786     0.00008     0.00008     0.00008
  n-local    46.96052    46.96052    46.96052     0.00000     0.00000     0.00000
  augment   121.08804   121.08804   121.08804    -0.00009    -0.00009    -0.00009
  Kinetic   110.36489   110.36489   110.36489     0.00000     0.00000     0.00000
  Fock        0.00000     0.00000     0.00000     0.00000     0.00000     0.00000
  Total       0.00896     0.00896     0.00896     0.00002     0.00002     0.00002
  in kB       0.30209     0.30209     0.30209     0.00057     0.00057     0.00057

 VOLUME and BASIS-vectors are now :
  energy-cutoff  :      520.00
  volume of cell :       47.53
      direct lattice vectors                 reciprocal lattice vectors
     0.000000000  2.875091000  2.875091000    -0.173907539  0.173907539  0.173907539
     2.875091000  0.000000000  2.875091000     0.173907539 -0.173907539  0.173907539
     2.875091000  2.875091000  0.000000000     0.173907539  0.173907539 -0.173907539

  length of vectors
     4.065992685  4.065992685  4.065992685     0.301216693  0.301216693  0.301216693

 FORCES acting on ions
    electron-ion (+dipol)            ewald-force                    non-local-force                 convergence-correction
   -.919E-05 -.920E-05 -.915E-05   0.127E-13 0.274E-13 -.335E-13   0.968E-05 0.968E-05 0.966E-05   0.302E-08 0.220E-07 0.130E-07
   -.808E-06 -.809E-06 -.824E-06   -.122E-13 -.274E-13 0.316E-13   0.165E-06 0.165E-06 0.166E-06   -.715E-09 -.371E-09 0.765E-09
   -.100E-04 -.100E-04 -.998E-05   0.553E-15 0.336E-17 -.185E-14   0.985E-05 0.984E-05 0.983E-05   0.230E-08 0.217E-07 0.138E-07

 POSITION                                       TOTAL-FORCE (eV/Angst)
      0.00000      0.00000      0.00000         0.000001      0.000001      0.000001
      4.31264      4.31264      4.31264        -0.000001     -0.000001     -0.000001
    total drift:                               -0.000000     -0.000000     -0.000000

  FREE ENERGIE OF THE ION-ELECTRON SYSTEM (eV)
  free  energy   TOTEN  =        -8.26847536 eV

  energy  without entropy=       -8.26825461  energy(sigma->0) =       -8.26836499

 writing wavefunctions

 total charge

# of ion     s       p       d       tot
  1        0.883   0.753   9.985  11.621
  2        1.214   1.562   0.028   2.804
tot        2.096   2.315  10.013  14.425